l=596;
a=5;
setup_costs=[|3,3,0,2,0,
|2,0,3,0,3,
|2,1,3,1,2,
|3,1,3,2,3,
|3,0,2,0,1,
|0,0,0,0,0|];
setup_times=[|1,1,3,1,0,
|3,0,1,0,0,
|3,3,2,2,3,
|0,2,3,2,0,
|0,2,2,3,3,
|0,0,0,0,0|];
m=5;
min_cap=[0,0,0,0,0];
max_cap=[95,83,45,85,44];

initState=[3,2,5,5,2];
s=3;
m_a_s = [|141,395,510,
|0,0,19,
|0,99,307,
|16,318,528,
|0,0,62|];
m_a_e = [|376,504,594,
|0,0,493,
|0,294,566,
|292,508,581,
|0,0,573|];
n=50;
eligible_machine = [{5,1},
{5,1,2,3},
{5},
{3,4,5},
{2,1,3,5},
{3,1,4},
{3,2,4},
{2,1,5},
{3,4},
{5,1,2},
{3,1},
{1},
{4,3},
{4,1,2},
{1,2},
{1,2,3,4,5},
{1,4,5},
{1,2,3},
{3,1,4},
{4,2},
{5,3,4},
{3,1},
{3,1,4},
{3,1},
{5,2,3},
{1,2},
{5,2,3},
{2,1,5},
{5,4},
{4,1,2},
{1,2,4,5},
{5,3},
{4,3},
{4,1},
{2,3,4,5},
{1,2,5},
{5,3,4},
{2,1,3,4},
{5,1},
{3,1,2,4},
{3,4},
{3,5},
{3,1,2,4,5},
{2,4,5},
{2,5},
{5,1,2,3,4},
{3,1,4,5},
{4,1,2},
{5,4},
{3,5}];
earliest_start=[19,22,17,12,23,13,0,23,27,4,14,22,26,23,28,22,26,24,5,12,19,11,6,15,15,16,19,11,14,27,25,26,0,16,24,7,25,3,22,19,6,9,4,25,7,17,7,17,12,12];
latest_end=[28,39,26,18,31,20,9,38,32,22,19,31,33,27,36,39,32,29,10,26,31,12,17,25,23,25,33,24,27,36,26,34,11,24,26,11,27,4,23,29,11,11,13,32,10,28,16,29,19,16];
min_time=[6,9,6,4,8,4,5,9,4,10,3,5,5,4,7,9,5,3,3,10,8,1,9,8,5,6,9,7,10,5,1,6,6,6,2,3,2,1,1,8,4,2,5,5,3,6,7,10,7,4];
max_time=[10,10,10,10,10,10,10,10,10,10,10,10,10,10,10,10,10,10,10,10,10,10,10,10,10,10,10,10,10,10,10,10,10,10,10,10,10,10,10,10,10,10,10,10,10,10,10,10,10,10];
size=[15,4,4,11,8,12,16,9,6,12,12,5,15,8,18,15,18,6,8,20,18,14,12,2,2,2,11,8,5,17,7,8,19,16,6,18,11,16,19,16,4,18,5,14,8,7,11,16,2,12];
attribute=[3,5,3,4,3,4,3,2,5,2,4,3,1,3,2,4,2,3,5,4,3,2,2,4,4,3,2,3,4,5,5,5,4,5,3,3,4,4,3,1,3,5,1,3,5,3,3,1,3,4];

upper_bound_integer_objective=31500;
mult_factor_total_runtime=4;
mult_factor_finished_toolate=600;
mult_factor_total_setuptimes=0;
mult_factor_total_setupcosts=2;
running_time_bound=276;
min_duration=1;
max_duration=10;
max_setup_time=3;
max_setup_cost=3;
